#This is Python generated data file for Pyomo model DCLF.py
#_author_:W. Bukhsh
#Time stamp: 2021-01-21 14:46:10.840669
set B:=
Zone01
Zone02
Zone03
Zone04
Zone05
Zone06
Zone07
Zone08
Zone09
Zone10
Zone11
Zone12
Zone13
Zone14
Zone14A
Zone15
Zone16
Zone17
Zone18
Zone19
Zone20
Zone21
Zone22
Zone23
Zone24
Zone25
Zone25A
Zone26
Zone27E
Zone27W
Zone28
Zone29
Zone30
Zone31
Zone32
Zone33
;
set G:=
g1
g2
g3
g4
g5
g6
g7
g8
g9
g10
g11
g12
g13
g14
g15
g16
g17
g18
g19
g20
g21
g22
g23
g24
g25
g26
g27
g28
g29
g30
g31
g32
g33
g34
g35
g36
g37
g38
g39
g40
g41
g42
g43
g44
g45
g46
g47
g48
g49
g50
g51
g52
g53
g54
g55
g56
g57
g58
g59
g60
g61
g62
g63
g64
g65
g66
g67
g68
g69
g70
g71
g72
g73
g74
g75
g76
g77
g78
g79
g80
g81
g82
g83
g84
g85
g86
g87
g88
g89
g90
g91
g92
g93
g94
g95
g96
g97
g98
g99
g100
g101
g102
g103
g104
g105
g106
g107
g108
g109
g110
g111
g112
g113
g114
g115
g116
g117
g118
g119
g120
g121
g122
g123
g124
g125
g126
g127
g128
g129
g130
g131
g132
g133
g134
g135
g136
g137
g138
g139
g140
g141
g142
g143
g144
g145
g146
g147
g148
g149
g150
g151
g152
g153
g154
g155
g156
g157
g158
g159
g160
g161
g162
g163
g164
g165
g166
g167
g168
g169
g170
g171
g172
g173
g174
g175
g176
g177
g178
g179
g180
g181
g182
g183
g184
g185
g186
g187
g188
g189
g190
g191
g192
g193
g194
g195
g196
g197
g198
g199
g200
g201
g202
g203
g204
g205
g206
g207
g208
g209
g210
g211
g212
g213
g214
g215
g216
g217
g218
g219
g220
g221
g222
g223
g224
g225
g226
g227
g228
g229
g230
g231
g232
g233
g234
g235
g236
g237
g238
g239
g240
g241
g242
g243
g244
g245
g246
g247
g248
g249
g250
g251
g252
g253
g254
g255
g256
g257
g258
g259
g260
g261
g262
g263
g264
g265
g266
g267
g268
g269
g270
g271
g272
g273
g274
g275
g276
g277
g278
g279
g280
g281
g282
g283
g284
g285
g286
g287
g288
g289
g290
g291
g292
g293
g294
g295
g296
g297
g298
g299
g300
g301
g302
g303
g304
g305
g306
g307
g308
g309
g310
g311
g312
g313
g314
g315
g316
g317
g318
g319
g320
g321
g322
g323
g324
g325
g326
g327
g328
g329
g330
g331
g332
g333
g334
g335
g336
g337
g338
g339
g340
g341
g342
g343
g344
g345
g346
g347
g348
g349
g350
g351
g352
g353
g354
g355
g356
g357
g358
g359
g360
g361
g362
g363
g364
g365
g366
g367
g368
g369
g370
g371
g372
g373
g374
g375
g376
g377
g378
g379
g380
g381
g382
g383
;
set D:=
l1
l2
l3
l4
l5
l6
l7
l8
l9
l10
l11
l12
l13
l14
l15
l16
l17
l18
l19
l20
l21
l22
l23
l24
l25
l26
l27
l28
l29
l30
l31
l32
l33
l34
l35
l36
l37
;
param PD:=
l1 16.0
l2 18.3296997070313
l3 15.6123999023438
l4 7.901099853515629
l5 12.0073999023438
l6 15.3139001464844
l7 11.2030004882813
l8 12.0744995117188
l9 33.0255004882813
l10 17.6401000976563
l11 4.41609985351563
l12 4.27059997558594
l13 13.6641003417969
l14 21.861201171875
l15 14.5326000976563
l16 4.10130004882813
l17 23.2581005859375
l18 1.65949996948242
l19 1.4563000488281301
l20 9.79489990234375
l21 5.81640014648437
l22 18.7152001953125
l23 12.4615002441406
l24 6.06919982910156
l25 17.7647998046875
l26 5.146900024414061
l27 6.46179992675781
l28 8.90590026855469
l29 1.53410003662109
l30 5.38989990234375
l31 7.44320007324219
l32 6.1202001953125
l33 5.071700134277339
l34 3.38859985351562
l35 0.5341999816894529
l36 3.37779998779297
l37 3.67600006103516
;
param VOLL:=
l1 7000.0
l2 7000.0
l3 7000.0
l4 7000.0
l5 7000.0
l6 7000.0
l7 7000.0
l8 7000.0
l9 7000.0
l10 7000.0
l11 7000.0
l12 7000.0
l13 7000.0
l14 7000.0
l15 7000.0
l16 7000.0
l17 7000.0
l18 7000.0
l19 7000.0
l20 7000.0
l21 7000.0
l22 7000.0
l23 7000.0
l24 7000.0
l25 7000.0
l26 7000.0
l27 7000.0
l28 7000.0
l29 7000.0
l30 7000.0
l31 7000.0
l32 7000.0
l33 7000.0
l34 7000.0
l35 7000.0
l36 7000.0
l37 7000.0
;
param baseMVA:=
100
;
set LE:=
 1 
 2;
set L:=
l2
l5
l6
l7
l8
l9
l10
l11
l12
l13
l14
l15
l16
l17
l18
l19
l20
l21
l22
l23
l24
l25
l26
l27
l28
l29
l30
l31
l32
l33
l34
l35
l36
l37
l38
l39
l40
l41
l42
l43
l44
l45
l46
l47
l48
l49
l50
l51
l52
l53
l54
l55
l56
l57
l58
l59
l60
l61
l62
l63
l64
l65
l66
l67
X
l69
;
set Gbs:=
Zone01 g1
Zone01 g2
Zone01 g3
Zone01 g4
Zone01 g5
Zone01 g6
Zone01 g7
Zone01 g8
Zone02 g9
Zone02 g10
Zone02 g11
Zone02 g12
Zone02 g13
Zone02 g14
Zone02 g15
Zone02 g16
Zone03 g17
Zone03 g18
Zone03 g19
Zone03 g20
Zone03 g21
Zone03 g22
Zone03 g23
Zone03 g24
Zone04 g25
Zone04 g26
Zone04 g27
Zone04 g28
Zone04 g29
Zone04 g30
Zone04 g31
Zone04 g32
Zone05 g33
Zone05 g34
Zone05 g35
Zone05 g36
Zone05 g37
Zone05 g38
Zone05 g39
Zone05 g40
Zone06 g41
Zone06 g42
Zone06 g43
Zone06 g44
Zone06 g45
Zone06 g46
Zone06 g47
Zone06 g48
Zone07 g49
Zone07 g50
Zone07 g51
Zone07 g52
Zone07 g53
Zone07 g54
Zone07 g55
Zone07 g56
Zone08 g57
Zone08 g58
Zone08 g59
Zone08 g60
Zone08 g61
Zone08 g62
Zone08 g63
Zone08 g64
Zone09 g65
Zone09 g66
Zone09 g67
Zone09 g68
Zone09 g69
Zone09 g70
Zone09 g71
Zone09 g72
Zone10 g73
Zone10 g74
Zone10 g75
Zone10 g76
Zone10 g77
Zone10 g78
Zone10 g79
Zone10 g80
Zone11 g81
Zone11 g82
Zone11 g83
Zone11 g84
Zone11 g85
Zone11 g86
Zone11 g87
Zone11 g88
Zone12 g89
Zone12 g90
Zone12 g91
Zone12 g92
Zone12 g93
Zone12 g94
Zone12 g95
Zone12 g96
Zone13 g97
Zone13 g98
Zone13 g99
Zone13 g100
Zone13 g101
Zone13 g102
Zone13 g103
Zone13 g104
Zone14 g105
Zone14 g106
Zone14 g107
Zone14 g108
Zone14 g109
Zone14 g110
Zone14 g111
Zone14 g112
Zone14A g113
Zone14A g114
Zone14A g115
Zone14A g116
Zone14A g117
Zone14A g118
Zone14A g119
Zone14A g120
Zone15 g121
Zone15 g122
Zone15 g123
Zone15 g124
Zone15 g125
Zone15 g126
Zone15 g127
Zone15 g128
Zone16 g129
Zone16 g130
Zone16 g131
Zone16 g132
Zone16 g133
Zone16 g134
Zone16 g135
Zone16 g136
Zone17 g137
Zone17 g138
Zone17 g139
Zone17 g140
Zone17 g141
Zone17 g142
Zone17 g143
Zone17 g144
Zone18 g145
Zone18 g146
Zone18 g147
Zone18 g148
Zone18 g149
Zone18 g150
Zone18 g151
Zone18 g152
Zone19 g153
Zone19 g154
Zone19 g155
Zone19 g156
Zone19 g157
Zone19 g158
Zone19 g159
Zone19 g160
Zone20 g161
Zone20 g162
Zone20 g163
Zone20 g164
Zone20 g165
Zone20 g166
Zone20 g167
Zone20 g168
Zone21 g169
Zone21 g170
Zone21 g171
Zone21 g172
Zone21 g173
Zone21 g174
Zone21 g175
Zone21 g176
Zone22 g177
Zone22 g178
Zone22 g179
Zone22 g180
Zone22 g181
Zone22 g182
Zone22 g183
Zone22 g184
Zone23 g185
Zone23 g186
Zone23 g187
Zone23 g188
Zone23 g189
Zone23 g190
Zone23 g191
Zone23 g192
Zone24 g193
Zone24 g194
Zone24 g195
Zone24 g196
Zone24 g197
Zone24 g198
Zone24 g199
Zone24 g200
Zone25 g201
Zone25 g202
Zone25 g203
Zone25 g204
Zone25 g205
Zone25 g206
Zone25 g207
Zone25 g208
Zone25A g209
Zone25A g210
Zone25A g211
Zone25A g212
Zone25A g213
Zone25A g214
Zone25A g215
Zone25A g216
Zone26 g217
Zone26 g218
Zone26 g219
Zone26 g220
Zone26 g221
Zone26 g222
Zone26 g223
Zone26 g224
Zone27E g225
Zone27E g226
Zone27E g227
Zone27E g228
Zone27E g229
Zone27E g230
Zone27E g231
Zone27E g232
Zone27W g233
Zone27W g234
Zone27W g235
Zone27W g236
Zone27W g237
Zone27W g238
Zone27W g239
Zone27W g240
Zone28 g241
Zone28 g242
Zone28 g243
Zone28 g244
Zone28 g245
Zone28 g246
Zone28 g247
Zone28 g248
Zone29 g249
Zone29 g250
Zone29 g251
Zone29 g252
Zone29 g253
Zone29 g254
Zone29 g255
Zone29 g256
Zone30 g257
Zone30 g258
Zone30 g259
Zone30 g260
Zone30 g261
Zone30 g262
Zone30 g263
Zone30 g264
Zone31 g265
Zone31 g266
Zone31 g267
Zone31 g268
Zone31 g269
Zone31 g270
Zone31 g271
Zone31 g272
Zone32 g273
Zone32 g274
Zone32 g275
Zone32 g276
Zone32 g277
Zone32 g278
Zone32 g279
Zone32 g280
Zone33 g281
Zone33 g282
Zone33 g283
Zone33 g284
Zone33 g285
Zone33 g286
Zone33 g287
Zone33 g288
Zone01 g289
Zone01 g290
Zone01 g291
Zone01 g292
Zone02 g293
Zone02 g294
Zone02 g295
Zone03 g296
Zone03 g297
Zone03 g298
Zone03 g299
Zone03 g300
Zone04 g301
Zone04 g302
Zone05 g303
Zone05 g304
Zone06 g305
Zone06 g306
Zone07 g307
Zone07 g308
Zone08 g309
Zone08 g310
Zone09 g311
Zone09 g312
Zone10 g313
Zone10 g314
Zone10 g315
Zone11 g316
Zone11 g317
Zone12 g318
Zone12 g319
Zone12 g320
Zone13 g321
Zone13 g322
Zone14 g323
Zone14 g324
Zone14A g325
Zone14A g326
Zone15 g327
Zone15 g328
Zone16 g329
Zone16 g330
Zone17 g331
Zone17 g332
Zone18 g333
Zone18 g334
Zone19 g335
Zone19 g336
Zone19 g337
Zone19 g338
Zone20 g339
Zone20 g340
Zone21 g341
Zone21 g342
Zone21 g343
Zone22 g344
Zone22 g345
Zone22 g346
Zone23 g347
Zone23 g348
Zone24 g349
Zone24 g350
Zone24 g351
Zone25 g352
Zone25 g353
Zone25 g354
Zone25 g355
Zone25A g356
Zone25A g357
Zone26 g358
Zone26 g359
Zone27E g360
Zone27E g361
Zone27E g362
Zone27W g363
Zone27W g364
Zone27W g365
Zone27W g366
Zone28 g367
Zone28 g368
Zone28 g369
Zone28 g370
Zone29 g371
Zone29 g372
Zone30 g373
Zone30 g374
Zone31 g375
Zone31 g376
Zone32 g377
Zone32 g378
Zone32 g379
Zone33 g380
Zone33 g381
Zone33 g382
Zone33 g383
;
set Dbs:=
Zone01 l1
Zone01 l2
Zone02 l3
Zone03 l4
Zone04 l5
Zone05 l6
Zone06 l7
Zone07 l8
Zone08 l9
Zone09 l10
Zone10 l11
Zone11 l12
Zone12 l13
Zone13 l14
Zone14 l15
Zone14A l16
Zone15 l17
Zone16 l18
Zone17 l19
Zone18 l20
Zone19 l21
Zone20 l22
Zone21 l23
Zone22 l24
Zone23 l25
Zone24 l26
Zone25 l27
Zone25A l28
Zone26 l29
Zone27E l30
Zone27W l31
Zone28 l32
Zone29 l33
Zone30 l34
Zone31 l35
Zone32 l36
Zone33 l37
;
set b0:=
Zone01
;
param A:=
l2 1 Zone26
l5 1 Zone28
l6 1 Zone01
l7 1 Zone01
l8 1 Zone02
l9 1 Zone02
l10 1 Zone03
l11 1 Zone04
l12 1 Zone04
l13 1 Zone04
l14 1 Zone05
l15 1 Zone05
l16 1 Zone06
l17 1 Zone06
l18 1 Zone07
l19 1 Zone09
l20 1 Zone07
l21 1 Zone08
l22 1 Zone08
l23 1 Zone13
l24 1 Zone09
l25 1 Zone13
l26 1 Zone10
l27 1 Zone11
l28 1 Zone11
l29 1 Zone12
l30 1 Zone12
l31 1 Zone13
l32 1 Zone17
l33 1 Zone15
l34 1 Zone14
l35 1 Zone15
l36 1 Zone14A
l37 1 Zone14A
l38 1 Zone15
l39 1 Zone15
l40 1 Zone17
l41 1 Zone18
l42 1 Zone16
l43 1 Zone17
l44 1 Zone20
l45 1 Zone23
l46 1 Zone19
l47 1 Zone19
l48 1 Zone20
l49 1 Zone20
l50 1 Zone22
l51 1 Zone22
l52 1 Zone23
l53 1 Zone23
l54 1 Zone25
l55 1 Zone26
l56 1 Zone27E
l57 1 Zone27W
l58 1 Zone29
l59 1 Zone27W
l60 1 Zone28
l61 1 Zone27W
l62 1 Zone28
l63 1 Zone30
l64 1 Zone31
l65 1 Zone29
l66 1 Zone30
l67 1 Zone32
X 1 Zone31
l69 1 Zone32
l2 2 Zone23
l5 2 Zone26
l6 2 Zone02
l7 2 Zone05
l8 2 Zone03
l9 2 Zone06
l10 2 Zone10
l11 2 Zone05
l12 2 Zone06
l13 2 Zone14
l14 2 Zone06
l15 2 Zone14
l16 2 Zone07
l17 2 Zone13
l18 2 Zone08
l19 2 Zone07
l20 2 Zone10
l21 2 Zone09
l22 2 Zone10
l23 2 Zone08
l24 2 Zone11
l25 2 Zone09
l26 2 Zone11
l27 2 Zone12
l28 2 Zone13
l29 2 Zone13
l30 2 Zone16
l31 2 Zone14A
l32 2 Zone13
l33 2 Zone14
l34 2 Zone14A
l35 2 Zone14A
l36 2 Zone16
l37 2 Zone17
l38 2 Zone19
l39 2 Zone20
l40 2 Zone16
l41 2 Zone16
l42 2 Zone24
l43 2 Zone24
l44 2 Zone18
l45 2 Zone18
l46 2 Zone20
l47 2 Zone21
l48 2 Zone22
l49 2 Zone23
l50 2 Zone21
l51 2 Zone26
l52 2 Zone24
l53 2 Zone25A
l54 2 Zone25A
l55 2 Zone25
l56 2 Zone25
l57 2 Zone26
l58 2 Zone27E
l59 2 Zone27E
l60 2 Zone27W
l61 2 Zone29
l62 2 Zone29
l63 2 Zone28
l64 2 Zone29
l65 2 Zone33
l66 2 Zone31
l67 2 Zone31
X 2 Zone33
l69 2 Zone33
;
param PGmin:=
g1 0.0
g2 0.0
g3 0.0
g4 0.0
g5 0.0
g6 0.0
g7 0.0
g8 0.0
g9 0.0
g10 0.0
g11 0.0
g12 0.0
g13 0.0
g14 0.0
g15 0.0
g16 0.0
g17 0.0
g18 0.0
g19 0.0
g20 0.0
g21 0.0
g22 0.0
g23 0.0
g24 0.0
g25 0.0
g26 0.0
g27 0.0
g28 0.0
g29 0.0
g30 0.0
g31 0.0
g32 0.0
g33 0.0
g34 0.0
g35 0.0
g36 0.0
g37 0.0
g38 0.0
g39 0.0
g40 0.0
g41 0.0
g42 0.0
g43 0.0
g44 0.0
g45 0.0
g46 0.0
g47 0.0
g48 0.0
g49 0.0
g50 0.0
g51 0.0
g52 0.0
g53 0.0
g54 0.0
g55 0.0
g56 0.0
g57 0.0
g58 0.0
g59 0.0
g60 0.0
g61 0.0
g62 0.0
g63 0.0
g64 0.0
g65 0.0
g66 0.0
g67 0.0
g68 0.0
g69 0.0
g70 0.0
g71 0.0
g72 0.0
g73 0.0
g74 0.0
g75 0.0
g76 0.0
g77 0.0
g78 0.0
g79 0.0
g80 0.0
g81 0.0
g82 0.0
g83 0.0
g84 0.0
g85 0.0
g86 0.0
g87 0.0
g88 0.0
g89 0.0
g90 0.0
g91 0.0
g92 0.0
g93 0.0
g94 0.0
g95 0.0
g96 0.0
g97 0.0
g98 0.0
g99 0.0
g100 0.0
g101 0.0
g102 0.0
g103 0.0
g104 0.0
g105 0.0
g106 0.0
g107 0.0
g108 0.0
g109 0.0
g110 0.0
g111 0.0
g112 0.0
g113 0.0
g114 0.0
g115 0.0
g116 0.0
g117 0.0
g118 0.0
g119 0.0
g120 0.0
g121 0.0
g122 0.0
g123 0.0
g124 0.0
g125 0.0
g126 0.0
g127 0.0
g128 0.0
g129 0.0
g130 0.0
g131 0.0
g132 0.0
g133 0.0
g134 0.0
g135 0.0
g136 0.0
g137 0.0
g138 0.0
g139 0.0
g140 0.0
g141 0.0
g142 0.0
g143 0.0
g144 0.0
g145 0.0
g146 0.0
g147 0.0
g148 0.0
g149 0.0
g150 0.0
g151 0.0
g152 0.0
g153 0.0
g154 0.0
g155 0.0
g156 0.0
g157 0.0
g158 0.0
g159 0.0
g160 0.0
g161 0.0
g162 0.0
g163 0.0
g164 0.0
g165 0.0
g166 0.0
g167 0.0
g168 0.0
g169 0.0
g170 0.0
g171 0.0
g172 0.0
g173 0.0
g174 0.0
g175 0.0
g176 0.0
g177 0.0
g178 0.0
g179 0.0
g180 0.0
g181 0.0
g182 0.0
g183 0.0
g184 0.0
g185 0.0
g186 0.0
g187 0.0
g188 0.0
g189 0.0
g190 0.0
g191 0.0
g192 0.0
g193 0.0
g194 0.0
g195 0.0
g196 0.0
g197 0.0
g198 0.0
g199 0.0
g200 0.0
g201 0.0
g202 0.0
g203 0.0
g204 0.0
g205 0.0
g206 0.0
g207 0.0
g208 0.0
g209 0.0
g210 0.0
g211 0.0
g212 0.0
g213 0.0
g214 0.0
g215 0.0
g216 0.0
g217 0.0
g218 0.0
g219 0.0
g220 0.0
g221 0.0
g222 0.0
g223 0.0
g224 0.0
g225 0.0
g226 0.0
g227 0.0
g228 0.0
g229 0.0
g230 0.0
g231 0.0
g232 0.0
g233 0.0
g234 0.0
g235 0.0
g236 0.0
g237 0.0
g238 0.0
g239 0.0
g240 0.0
g241 0.0
g242 0.0
g243 0.0
g244 0.0
g245 0.0
g246 0.0
g247 0.0
g248 0.0
g249 0.0
g250 0.0
g251 0.0
g252 0.0
g253 0.0
g254 0.0
g255 0.0
g256 0.0
g257 0.0
g258 0.0
g259 0.0
g260 0.0
g261 0.0
g262 0.0
g263 0.0
g264 0.0
g265 0.0
g266 0.0
g267 0.0
g268 0.0
g269 0.0
g270 0.0
g271 0.0
g272 0.0
g273 0.0
g274 0.0
g275 0.0
g276 0.0
g277 0.0
g278 0.0
g279 0.0
g280 0.0
g281 0.0
g282 0.0
g283 0.0
g284 0.0
g285 0.0
g286 0.0
g287 0.0
g288 0.0
g289 0.0
g290 0.0
g291 0.0
g292 0.0
g293 0.0
g294 0.0
g295 0.0
g296 0.0
g297 0.0
g298 0.0
g299 0.0
g300 0.0
g301 0.0
g302 0.0
g303 0.0
g304 0.0
g305 0.0
g306 0.0
g307 0.0
g308 0.0
g309 0.0
g310 0.0
g311 0.0
g312 0.0
g313 0.0
g314 0.0
g315 0.0
g316 0.0
g317 0.0
g318 0.0
g319 0.0
g320 0.0
g321 0.0
g322 0.0
g323 0.0
g324 0.0
g325 0.0
g326 0.0
g327 0.0
g328 0.0
g329 0.0
g330 0.0
g331 0.0
g332 0.0
g333 0.0
g334 0.0
g335 0.0
g336 0.0
g337 0.0
g338 0.0
g339 0.0
g340 0.0
g341 0.0
g342 0.0
g343 0.0
g344 0.0
g345 0.0
g346 0.0
g347 0.0
g348 0.0
g349 0.0
g350 0.0
g351 0.0
g352 0.0
g353 0.0
g354 0.0
g355 0.0
g356 0.0
g357 0.0
g358 0.0
g359 0.0
g360 0.0
g361 0.0
g362 0.0
g363 0.0
g364 0.0
g365 0.0
g366 0.0
g367 0.0
g368 0.0
g369 0.0
g370 0.0
g371 0.0
g372 0.0
g373 0.0
g374 0.0
g375 0.0
g376 0.0
g377 0.0
g378 0.0
g379 0.0
g380 0.0
g381 0.0
g382 0.0
g383 0.0
;
param PGmax:=
g1 99.99
g2 99.99
g3 99.99
g4 99.99
g5 99.99
g6 99.99
g7 99.99
g8 99.99
g9 99.99
g10 99.99
g11 99.99
g12 99.99
g13 99.99
g14 99.99
g15 99.99
g16 99.99
g17 99.99
g18 99.99
g19 99.99
g20 99.99
g21 99.99
g22 99.99
g23 99.99
g24 99.99
g25 99.99
g26 99.99
g27 99.99
g28 99.99
g29 99.99
g30 99.99
g31 99.99
g32 99.99
g33 99.99
g34 99.99
g35 99.99
g36 99.99
g37 99.99
g38 99.99
g39 99.99
g40 99.99
g41 99.99
g42 99.99
g43 99.99
g44 99.99
g45 99.99
g46 99.99
g47 99.99
g48 99.99
g49 99.99
g50 99.99
g51 99.99
g52 99.99
g53 99.99
g54 99.99
g55 99.99
g56 99.99
g57 99.99
g58 99.99
g59 99.99
g60 99.99
g61 99.99
g62 99.99
g63 99.99
g64 99.99
g65 99.99
g66 99.99
g67 99.99
g68 99.99
g69 99.99
g70 99.99
g71 99.99
g72 99.99
g73 99.99
g74 99.99
g75 99.99
g76 99.99
g77 99.99
g78 99.99
g79 99.99
g80 99.99
g81 99.99
g82 99.99
g83 99.99
g84 99.99
g85 99.99
g86 99.99
g87 99.99
g88 99.99
g89 99.99
g90 99.99
g91 99.99
g92 99.99
g93 99.99
g94 99.99
g95 99.99
g96 99.99
g97 99.99
g98 99.99
g99 99.99
g100 99.99
g101 99.99
g102 99.99
g103 99.99
g104 99.99
g105 99.99
g106 99.99
g107 99.99
g108 99.99
g109 99.99
g110 99.99
g111 99.99
g112 99.99
g113 99.99
g114 99.99
g115 99.99
g116 99.99
g117 99.99
g118 99.99
g119 99.99
g120 99.99
g121 99.99
g122 99.99
g123 99.99
g124 99.99
g125 99.99
g126 99.99
g127 99.99
g128 99.99
g129 99.99
g130 99.99
g131 99.99
g132 99.99
g133 99.99
g134 99.99
g135 99.99
g136 99.99
g137 99.99
g138 99.99
g139 99.99
g140 99.99
g141 99.99
g142 99.99
g143 99.99
g144 99.99
g145 99.99
g146 99.99
g147 99.99
g148 99.99
g149 99.99
g150 99.99
g151 99.99
g152 99.99
g153 99.99
g154 99.99
g155 99.99
g156 99.99
g157 99.99
g158 99.99
g159 99.99
g160 99.99
g161 99.99
g162 99.99
g163 99.99
g164 99.99
g165 99.99
g166 99.99
g167 99.99
g168 99.99
g169 99.99
g170 99.99
g171 99.99
g172 99.99
g173 99.99
g174 99.99
g175 99.99
g176 99.99
g177 99.99
g178 99.99
g179 99.99
g180 99.99
g181 99.99
g182 99.99
g183 99.99
g184 99.99
g185 99.99
g186 99.99
g187 99.99
g188 99.99
g189 99.99
g190 99.99
g191 99.99
g192 99.99
g193 99.99
g194 99.99
g195 99.99
g196 99.99
g197 99.99
g198 99.99
g199 99.99
g200 99.99
g201 99.99
g202 99.99
g203 99.99
g204 99.99
g205 99.99
g206 99.99
g207 99.99
g208 99.99
g209 99.99
g210 99.99
g211 99.99
g212 99.99
g213 99.99
g214 99.99
g215 99.99
g216 99.99
g217 99.99
g218 99.99
g219 99.99
g220 99.99
g221 99.99
g222 99.99
g223 99.99
g224 99.99
g225 99.99
g226 99.99
g227 99.99
g228 99.99
g229 99.99
g230 99.99
g231 99.99
g232 99.99
g233 0.45
g234 99.99
g235 99.99
g236 99.99
g237 99.99
g238 99.99
g239 99.99
g240 99.99
g241 99.99
g242 99.99
g243 99.99
g244 99.99
g245 99.99
g246 99.99
g247 99.99
g248 99.99
g249 99.99
g250 99.99
g251 99.99
g252 99.99
g253 99.99
g254 99.99
g255 99.99
g256 99.99
g257 99.99
g258 99.99
g259 99.99
g260 99.99
g261 99.99
g262 99.99
g263 99.99
g264 99.99
g265 99.99
g266 99.99
g267 99.99
g268 99.99
g269 99.99
g270 99.99
g271 99.99
g272 99.99
g273 99.99
g274 99.99
g275 99.99
g276 99.99
g277 99.99
g278 99.99
g279 99.99
g280 99.99
g281 99.99
g282 99.99
g283 99.99
g284 99.99
g285 99.99
g286 99.99
g287 99.99
g288 99.99
g289 18.75
g290 12.5
g291 99.99
g292 99.99
g293 12.5
g294 99.99
g295 99.99
g296 12.5
g297 25.0
g298 12.5
g299 99.99
g300 99.99
g301 99.99
g302 99.99
g303 99.99
g304 99.99
g305 99.99
g306 99.99
g307 99.99
g308 99.99
g309 99.99
g310 99.99
g311 99.99
g312 99.99
g313 12.5
g314 99.99
g315 99.99
g316 99.99
g317 99.99
g318 12.5
g319 99.99
g320 99.99
g321 99.99
g322 99.99
g323 99.99
g324 99.99
g325 99.99
g326 99.99
g327 99.99
g328 99.99
g329 99.99
g330 99.99
g331 99.99
g332 99.99
g333 99.99
g334 99.99
g335 6.25
g336 26.0
g337 99.99
g338 99.99
g339 99.99
g340 99.99
g341 6.25
g342 99.99
g343 99.99
g344 45.0
g345 99.99
g346 99.99
g347 99.99
g348 99.99
g349 45.0
g350 99.99
g351 99.99
g352 17.5
g353 26.0
g354 99.99
g355 99.99
g356 99.99
g357 99.99
g358 99.99
g359 99.99
g360 26.0
g361 99.99
g362 99.99
g363 6.25
g364 45.0
g365 99.99
g366 99.99
g367 45.0
g368 26.0
g369 99.99
g370 99.99
g371 99.99
g372 99.99
g373 99.99
g374 99.99
g375 99.99
g376 99.99
g377 45.0
g378 99.99
g379 99.99
g380 17.5
g381 45.0
g382 99.99
g383 99.99
;
param SLmax:=
l2 30.0
l5 30.0
l6 30.0
l7 30.0
l8 30.0
l9 30.0
l10 30.0
l11 30.0
l12 30.0
l13 30.0
l14 30.0
l15 30.0
l16 30.0
l17 30.0
l18 30.0
l19 30.0
l20 30.0
l21 30.0
l22 30.0
l23 30.0
l24 30.0
l25 30.0
l26 30.0
l27 30.0
l28 30.0
l29 30.0
l30 30.0
l31 30.0
l32 30.0
l33 30.0
l34 30.0
l35 30.0
l36 30.0
l37 30.0
l38 30.0
l39 30.0
l40 30.0
l41 30.0
l42 30.0
l43 30.0
l44 30.0
l45 30.0
l46 30.0
l47 30.0
l48 30.0
l49 30.0
l50 30.0
l51 30.0
l52 30.0
l53 30.0
l54 30.0
l55 30.0
l56 30.0
l57 30.0
l58 30.0
l59 30.0
l60 30.0
l61 30.0
l62 30.0
l63 30.0
l64 30.0
l65 30.0
l66 30.0
l67 30.0
X 30.0
l69 30.0
;
param c2:=
g1 0.0
g2 0.0
g3 0.0
g4 0.0
g5 0.0
g6 0.0
g7 0.0
g8 0.0
g9 0.0
g10 0.0
g11 0.0
g12 0.0
g13 0.0
g14 0.0
g15 0.0
g16 0.0
g17 0.0
g18 0.0
g19 0.0
g20 0.0
g21 0.0
g22 0.0
g23 0.0
g24 0.0
g25 0.0
g26 0.0
g27 0.0
g28 0.0
g29 0.0
g30 0.0
g31 0.0
g32 0.0
g33 0.0
g34 0.0
g35 0.0
g36 0.0
g37 0.0
g38 0.0
g39 0.0
g40 0.0
g41 0.0
g42 0.0
g43 0.0
g44 0.0
g45 0.0
g46 0.0
g47 0.0
g48 0.0
g49 0.0
g50 0.0
g51 0.0
g52 0.0
g53 0.0
g54 0.0
g55 0.0
g56 0.0
g57 0.0
g58 0.0
g59 0.0
g60 0.0
g61 0.0
g62 0.0
g63 0.0
g64 0.0
g65 0.0
g66 0.0
g67 0.0
g68 0.0
g69 0.0
g70 0.0
g71 0.0
g72 0.0
g73 0.0
g74 0.0
g75 0.0
g76 0.0
g77 0.0
g78 0.0
g79 0.0
g80 0.0
g81 0.0
g82 0.0
g83 0.0
g84 0.0
g85 0.0
g86 0.0
g87 0.0
g88 0.0
g89 0.0
g90 0.0
g91 0.0
g92 0.0
g93 0.0
g94 0.0
g95 0.0
g96 0.0
g97 0.0
g98 0.0
g99 0.0
g100 0.0
g101 0.0
g102 0.0
g103 0.0
g104 0.0
g105 0.0
g106 0.0
g107 0.0
g108 0.0
g109 0.0
g110 0.0
g111 0.0
g112 0.0
g113 0.0
g114 0.0
g115 0.0
g116 0.0
g117 0.0
g118 0.0
g119 0.0
g120 0.0
g121 0.0
g122 0.0
g123 0.0
g124 0.0
g125 0.0
g126 0.0
g127 0.0
g128 0.0
g129 0.0
g130 0.0
g131 0.0
g132 0.0
g133 0.0
g134 0.0
g135 0.0
g136 0.0
g137 0.0
g138 0.0
g139 0.0
g140 0.0
g141 0.0
g142 0.0
g143 0.0
g144 0.0
g145 0.0
g146 0.0
g147 0.0
g148 0.0
g149 0.0
g150 0.0
g151 0.0
g152 0.0
g153 0.0
g154 0.0
g155 0.0
g156 0.0
g157 0.0
g158 0.0
g159 0.0
g160 0.0
g161 0.0
g162 0.0
g163 0.0
g164 0.0
g165 0.0
g166 0.0
g167 0.0
g168 0.0
g169 0.0
g170 0.0
g171 0.0
g172 0.0
g173 0.0
g174 0.0
g175 0.0
g176 0.0
g177 0.0
g178 0.0
g179 0.0
g180 0.0
g181 0.0
g182 0.0
g183 0.0
g184 0.0
g185 0.0
g186 0.0
g187 0.0
g188 0.0
g189 0.0
g190 0.0
g191 0.0
g192 0.0
g193 0.0
g194 0.0
g195 0.0
g196 0.0
g197 0.0
g198 0.0
g199 0.0
g200 0.0
g201 0.0
g202 0.0
g203 0.0
g204 0.0
g205 0.0
g206 0.0
g207 0.0
g208 0.0
g209 0.0
g210 0.0
g211 0.0
g212 0.0
g213 0.0
g214 0.0
g215 0.0
g216 0.0
g217 0.0
g218 0.0
g219 0.0
g220 0.0
g221 0.0
g222 0.0
g223 0.0
g224 0.0
g225 0.0
g226 0.0
g227 0.0
g228 0.0
g229 0.0
g230 0.0
g231 0.0
g232 0.0
g233 0.0
g234 0.0
g235 0.0
g236 0.0
g237 0.0
g238 0.0
g239 0.0
g240 0.0
g241 0.0
g242 0.0
g243 0.0
g244 0.0
g245 0.0
g246 0.0
g247 0.0
g248 0.0
g249 0.0
g250 0.0
g251 0.0
g252 0.0
g253 0.0
g254 0.0
g255 0.0
g256 0.0
g257 0.0
g258 0.0
g259 0.0
g260 0.0
g261 0.0
g262 0.0
g263 0.0
g264 0.0
g265 0.0
g266 0.0
g267 0.0
g268 0.0
g269 0.0
g270 0.0
g271 0.0
g272 0.0
g273 0.0
g274 0.0
g275 0.0
g276 0.0
g277 0.0
g278 0.0
g279 0.0
g280 0.0
g281 0.0
g282 0.0
g283 0.0
g284 0.0
g285 0.0
g286 0.0
g287 0.0
g288 0.0
g289 0.0
g290 0.0
g291 0.0
g292 0.0
g293 0.0
g294 0.0
g295 0.0
g296 0.0
g297 0.0
g298 0.0
g299 0.0
g300 0.0
g301 0.0
g302 0.0
g303 0.0
g304 0.0
g305 0.0
g306 0.0
g307 0.0
g308 0.0
g309 0.0
g310 0.0
g311 0.0
g312 0.0
g313 0.0
g314 0.0
g315 0.0
g316 0.0
g317 0.0
g318 0.0
g319 0.0
g320 0.0
g321 0.0
g322 0.0
g323 0.0
g324 0.0
g325 0.0
g326 0.0
g327 0.0
g328 0.0
g329 0.0
g330 0.0
g331 0.0
g332 0.0
g333 0.0
g334 0.0
g335 0.0
g336 0.0
g337 0.0
g338 0.0
g339 0.0
g340 0.0
g341 0.0
g342 0.0
g343 0.0
g344 0.0
g345 0.0
g346 0.0
g347 0.0
g348 0.0
g349 0.0
g350 0.0
g351 0.0
g352 0.0
g353 0.0
g354 0.0
g355 0.0
g356 0.0
g357 0.0
g358 0.0
g359 0.0
g360 0.0
g361 0.0
g362 0.0
g363 0.0
g364 0.0
g365 0.0
g366 0.0
g367 0.0
g368 0.0
g369 0.0
g370 0.0
g371 0.0
g372 0.0
g373 0.0
g374 0.0
g375 0.0
g376 0.0
g377 0.0
g378 0.0
g379 0.0
g380 0.0
g381 0.0
g382 0.0
g383 0.0
;
param c1:=
g1 9.94013312986051
g2 10.2530140016127
g3 9.52721225911386
g4 8.43430797433594
g5 9.34296191902134
g6 9.57360897452207
g7 9.74614738749262
g8 8.34082535347909
g9 10.6076877830783
g10 9.62364703869004
g11 11.3859070519713
g12 8.38818365834539
g13 10.4955882661346
g14 9.28193293036078
g15 9.61071536312908
g16 9.48495612105111
g17 11.7677316113162
g18 10.0002134123319
g19 10.8386967620551
g20 10.0931914013813
g21 10.3163221197161
g22 8.38794031643432
g23 9.21000349610025
g24 11.4945316340034
g25 9.69918710455875
g26 10.7931632202806
g27 8.34585980246868
g28 9.18844703291081
g29 9.6457648294755
g30 11.5421151676743
g31 11.0189678621156
g32 11.1045086788765
g33 8.06424368293782
g34 11.7630850540826
g35 11.5562305996963
g36 11.2947558621666
g37 8.77326164208615
g38 9.72882615552063
g39 10.7842284527652
g40 10.9564414412642
g41 8.3424863003704
g42 11.119544991183
g43 11.1541675224237
g44 11.346941612647
g45 8.0637342805072
g46 10.7513898837514
g47 8.70115259884349
g48 10.7366001979487
g49 11.8137244729314
g50 9.49055266689863
g51 9.05452772712829
g52 10.6401837174353
g53 10.2132596167588
g54 11.5764699983503
g55 9.75976383174527
g56 8.9255712654581
g57 9.33879547254705
g58 10.4685957880701
g59 10.6147073457985
g60 9.26231044217548
g61 8.49808704268118
g62 8.2547551644043
g63 8.67386183749717
g64 9.35391694327114
g65 11.3864813573385
g66 9.09823372354316
g67 10.4240147798341
g68 10.6917111255916
g69 10.5421726246166
g70 10.7408151908698
g71 8.56453016129351
g72 10.317177040158
g73 9.17469089751291
g74 10.2227731802653
g75 9.73727732128938
g76 8.99837841643151
g77 11.1765603096916
g78 10.0607843013884
g79 10.3938435050129
g80 10.9696455835451
g81 10.4721930888341
g82 9.67685811111965
g83 10.210692077289
g84 11.0091593614378
g85 10.5602418041985
g86 11.1067563201614
g87 9.06468374322162
g88 10.438744542286
g89 9.31768221843047
g90 10.1258120838531
g91 10.0722405664212
g92 8.22669243236139
g93 10.1663859709154
g94 8.71223686731127
g95 10.9691828871509
g96 8.87182802128434
g97 11.0214224258685
g98 8.5668939033781
g99 10.6811054729677
g100 10.5680649458426
g101 8.83995570919662
g102 10.3480518248937
g103 11.4078466043154
g104 9.74302153500663
g105 9.01683199390367
g106 8.94008483564606
g107 11.8096271314913
g108 9.0994136533032
g109 8.92442895417594
g110 9.77261005302751
g111 11.5009479138554
g112 8.42682424090513
g113 8.02030337156965
g114 8.85730659747633
g115 11.0894719462562
g116 8.00435013165775
g117 8.56563942193409
g118 10.7285979044007
g119 8.504316936737
g120 9.78447348778968
g121 9.91544465551627
g122 11.2127575257433
g123 9.42110132844125
g124 11.7237727650778
g125 8.00645516990418
g126 8.55962100336003
g127 8.71558946871176
g128 11.2343925257495
g129 9.83344857257884
g130 8.61046828070231
g131 8.52222970438022
g132 10.5825477907967
g133 11.2595525440907
g134 11.3432028047771
g135 11.9188410695532
g136 10.4988721052605
g137 9.50731184124794
g138 11.0302815768584
g139 11.612659564965
g140 10.4245553243391
g141 11.1808739884246
g142 9.16280349793949
g143 9.89928879247093
g144 9.06080104989373
g145 8.57629843478762
g146 10.5067335164369
g147 11.059256932655
g148 10.2835809050495
g149 8.73285690983155
g150 8.72779922705776
g151 10.3083568948772
g152 11.7850680120942
g153 9.42640015896592
g154 10.6151531311713
g155 9.66193437118082
g156 9.44836703001148
g157 9.92512274752482
g158 11.9231890715452
g159 9.27009226998259
g160 9.09003954805279
g161 10.5170365148795
g162 9.41935666122931
g163 10.7754748653332
g164 8.34382930107885
g165 8.56779730281506
g166 8.21228487281284
g167 8.80259422063138
g168 9.32329357032879
g169 9.62576408411581
g170 11.0505110563223
g171 10.7045668970444
g172 11.1176732631411
g173 10.981030690419
g174 10.6841962165397
g175 9.69647783202505
g176 11.9527382700585
g177 9.27142012296194
g178 8.50006704939878
g179 11.6845735678093
g180 9.58148702342419
g181 8.35654042009828
g182 10.5916227310059
g183 8.55657693579962
g184 9.87354740432658
g185 8.61506849113431
g186 9.01682768496284
g187 9.9775214783899
g188 10.8623159195037
g189 8.93229733481653
g190 11.1182872464741
g191 8.10232349808367
g192 11.0284208884595
g193 10.6236749335535
g194 11.1199541190618
g195 8.50726580712327
g196 11.9689336316519
g197 11.9702503222184
g198 10.2714237678658
g199 10.578315155318
g200 9.8774675395183
g201 11.7110975192825
g202 8.7741244357908
g203 8.69436271972966
g204 11.7130036918741
g205 9.50309997850851
g206 8.20235609509189
g207 10.6042658092865
g208 8.1405958923137
g209 11.6582069131667
g210 10.7141901715194
g211 10.722848644205
g212 11.7729472036501
g213 8.03901089055851
g214 8.92888871513579
g215 10.3114865247233
g216 9.56114476103425
g217 8.97911410972492
g218 11.0180460854728
g219 10.7189173763008
g220 10.1965360672289
g221 8.59102420409352
g222 11.9756961911886
g223 11.2469784314082
g224 9.5786259853985
g225 10.5197676722131
g226 8.1254551466232
g227 9.30329695029589
g228 11.2530695851492
g229 11.3784715098146
g230 8.07426337245169
g231 8.82267652936844
g232 9.91373205819313
g233 9.60330706973274
g234 11.0700495225273
g235 9.31724879576769
g236 8.72504175521726
g237 10.6468617365416
g238 9.84327120175831
g239 10.5636227636716
g240 8.58826535415885
g241 10.8301006293834
g242 8.20148928685714
g243 11.0745722789109
g244 9.12808934605573
g245 10.0596983219305
g246 8.26336617439196
g247 8.09041804699716
g248 11.6213237167413
g249 8.06716507575037
g250 9.80020090116518
g251 10.6729109187258
g252 8.89612456821372
g253 10.2704087921708
g254 10.6518790007451
g255 10.0514443933511
g256 8.99113073975548
g257 10.0884934922916
g258 10.5301283398371
g259 8.97962201367461
g260 11.088650246374
g261 10.5112951811981
g262 10.3829736966749
g263 9.06773544830691
g264 10.6463250033095
g265 8.16276939325918
g266 10.4390538627757
g267 9.26782848615217
g268 10.5664539881886
g269 11.2926807983827
g270 9.31576091809674
g271 9.67811783145011
g272 11.318520415797
g273 11.7656139597038
g274 10.0829011599152
g275 9.86404832667375
g276 11.9843417662873
g277 11.8527542071303
g278 9.16236131463
g279 9.85342086502829
g280 9.88755247431743
g281 9.85350209893551
g282 8.72353239428345
g283 11.0280465444137
g284 8.60777041494859
g285 11.9691298537886
g286 9.79338702693067
g287 8.97067330390753
g288 8.91514800605035
g289 11.6325877145322
g290 9.36415861461035
g291 11.2085350659055
g292 11.9736989947282
g293 8.25435505661901
g294 9.54993282159882
g295 11.0216211361017
g296 9.19989339641878
g297 8.10367836685539
g298 11.0121155874403
g299 11.7110978209055
g300 10.4205221210977
g301 10.1904379109067
g302 10.6061952193362
g303 9.34579408561505
g304 9.76167489405481
g305 11.2588873990136
g306 8.9117030365008
g307 8.65627585177018
g308 9.34534271477168
g309 9.03750656718428
g310 10.5392804801433
g311 9.08637479188726
g312 9.93514341707366
g313 9.85573758210731
g314 11.3870378705362
g315 8.91197466845456
g316 9.35029922868319
g317 8.90313986864849
g318 9.42575320533617
g319 11.9875910926751
g320 8.23557807300988
g321 11.9960878788524
g322 10.594951426668
g323 10.7015052909758
g324 9.31362842300577
g325 10.7949633408197
g326 9.45844042742151
g327 10.6137712583815
g328 8.0111391191852
g329 10.4940758782487
g330 10.8967176984467
g331 8.26686902721752
g332 8.31155975170946
g333 8.46616474390877
g334 8.41401682241629
g335 8.48600117366475
g336 8.75192465661594
g337 9.21373419720277
g338 8.29979109539049
g339 11.159761919606
g340 9.33944379382794
g341 11.7964750064075
g342 9.42677278504002
g343 11.9042740529921
g344 9.27999676669251
g345 9.17495702696509
g346 10.0825659938514
g347 9.94184318574095
g348 10.1425468479934
g349 9.36281565146549
g350 11.4580305558542
g351 10.8698772159185
g352 9.94160892154632
g353 8.89280059315272
g354 11.5482152954487
g355 8.96473496806204
g356 8.40981602948604
g357 10.8304356187496
g358 11.1998172728191
g359 10.5531835517838
g360 9.02965202462434
g361 11.6197593583872
g362 9.74978880071538
g363 10.9319494897131
g364 8.00883070910068
g365 11.0027943077912
g366 11.6223007526719
g367 11.3046409081868
g368 8.06375012580926
g369 11.481076590864
g370 11.3997590980457
g371 11.0361328987376
g372 11.0823994775065
g373 10.2476584180904
g374 11.0843631819015
g375 10.0829642555628
g376 9.03584140698481
g377 11.2414725130579
g378 9.34507498245254
g379 10.5174921961369
g380 11.8923391029168
g381 11.6644909745366
g382 8.58442332715184
g383 11.1600206898258
;
param c0:=
g1 0.0
g2 0.0
g3 0.0
g4 0.0
g5 0.0
g6 0.0
g7 0.0
g8 0.0
g9 0.0
g10 0.0
g11 0.0
g12 0.0
g13 0.0
g14 0.0
g15 0.0
g16 0.0
g17 0.0
g18 0.0
g19 0.0
g20 0.0
g21 0.0
g22 0.0
g23 0.0
g24 0.0
g25 0.0
g26 0.0
g27 0.0
g28 0.0
g29 0.0
g30 0.0
g31 0.0
g32 0.0
g33 0.0
g34 0.0
g35 0.0
g36 0.0
g37 0.0
g38 0.0
g39 0.0
g40 0.0
g41 0.0
g42 0.0
g43 0.0
g44 0.0
g45 0.0
g46 0.0
g47 0.0
g48 0.0
g49 0.0
g50 0.0
g51 0.0
g52 0.0
g53 0.0
g54 0.0
g55 0.0
g56 0.0
g57 0.0
g58 0.0
g59 0.0
g60 0.0
g61 0.0
g62 0.0
g63 0.0
g64 0.0
g65 0.0
g66 0.0
g67 0.0
g68 0.0
g69 0.0
g70 0.0
g71 0.0
g72 0.0
g73 0.0
g74 0.0
g75 0.0
g76 0.0
g77 0.0
g78 0.0
g79 0.0
g80 0.0
g81 0.0
g82 0.0
g83 0.0
g84 0.0
g85 0.0
g86 0.0
g87 0.0
g88 0.0
g89 0.0
g90 0.0
g91 0.0
g92 0.0
g93 0.0
g94 0.0
g95 0.0
g96 0.0
g97 0.0
g98 0.0
g99 0.0
g100 0.0
g101 0.0
g102 0.0
g103 0.0
g104 0.0
g105 0.0
g106 0.0
g107 0.0
g108 0.0
g109 0.0
g110 0.0
g111 0.0
g112 0.0
g113 0.0
g114 0.0
g115 0.0
g116 0.0
g117 0.0
g118 0.0
g119 0.0
g120 0.0
g121 0.0
g122 0.0
g123 0.0
g124 0.0
g125 0.0
g126 0.0
g127 0.0
g128 0.0
g129 0.0
g130 0.0
g131 0.0
g132 0.0
g133 0.0
g134 0.0
g135 0.0
g136 0.0
g137 0.0
g138 0.0
g139 0.0
g140 0.0
g141 0.0
g142 0.0
g143 0.0
g144 0.0
g145 0.0
g146 0.0
g147 0.0
g148 0.0
g149 0.0
g150 0.0
g151 0.0
g152 0.0
g153 0.0
g154 0.0
g155 0.0
g156 0.0
g157 0.0
g158 0.0
g159 0.0
g160 0.0
g161 0.0
g162 0.0
g163 0.0
g164 0.0
g165 0.0
g166 0.0
g167 0.0
g168 0.0
g169 0.0
g170 0.0
g171 0.0
g172 0.0
g173 0.0
g174 0.0
g175 0.0
g176 0.0
g177 0.0
g178 0.0
g179 0.0
g180 0.0
g181 0.0
g182 0.0
g183 0.0
g184 0.0
g185 0.0
g186 0.0
g187 0.0
g188 0.0
g189 0.0
g190 0.0
g191 0.0
g192 0.0
g193 0.0
g194 0.0
g195 0.0
g196 0.0
g197 0.0
g198 0.0
g199 0.0
g200 0.0
g201 0.0
g202 0.0
g203 0.0
g204 0.0
g205 0.0
g206 0.0
g207 0.0
g208 0.0
g209 0.0
g210 0.0
g211 0.0
g212 0.0
g213 0.0
g214 0.0
g215 0.0
g216 0.0
g217 0.0
g218 0.0
g219 0.0
g220 0.0
g221 0.0
g222 0.0
g223 0.0
g224 0.0
g225 0.0
g226 0.0
g227 0.0
g228 0.0
g229 0.0
g230 0.0
g231 0.0
g232 0.0
g233 0.0
g234 0.0
g235 0.0
g236 0.0
g237 0.0
g238 0.0
g239 0.0
g240 0.0
g241 0.0
g242 0.0
g243 0.0
g244 0.0
g245 0.0
g246 0.0
g247 0.0
g248 0.0
g249 0.0
g250 0.0
g251 0.0
g252 0.0
g253 0.0
g254 0.0
g255 0.0
g256 0.0
g257 0.0
g258 0.0
g259 0.0
g260 0.0
g261 0.0
g262 0.0
g263 0.0
g264 0.0
g265 0.0
g266 0.0
g267 0.0
g268 0.0
g269 0.0
g270 0.0
g271 0.0
g272 0.0
g273 0.0
g274 0.0
g275 0.0
g276 0.0
g277 0.0
g278 0.0
g279 0.0
g280 0.0
g281 0.0
g282 0.0
g283 0.0
g284 0.0
g285 0.0
g286 0.0
g287 0.0
g288 0.0
g289 0.0
g290 0.0
g291 0.0
g292 0.0
g293 0.0
g294 0.0
g295 0.0
g296 0.0
g297 0.0
g298 0.0
g299 0.0
g300 0.0
g301 0.0
g302 0.0
g303 0.0
g304 0.0
g305 0.0
g306 0.0
g307 0.0
g308 0.0
g309 0.0
g310 0.0
g311 0.0
g312 0.0
g313 0.0
g314 0.0
g315 0.0
g316 0.0
g317 0.0
g318 0.0
g319 0.0
g320 0.0
g321 0.0
g322 0.0
g323 0.0
g324 0.0
g325 0.0
g326 0.0
g327 0.0
g328 0.0
g329 0.0
g330 0.0
g331 0.0
g332 0.0
g333 0.0
g334 0.0
g335 0.0
g336 0.0
g337 0.0
g338 0.0
g339 0.0
g340 0.0
g341 0.0
g342 0.0
g343 0.0
g344 0.0
g345 0.0
g346 0.0
g347 0.0
g348 0.0
g349 0.0
g350 0.0
g351 0.0
g352 0.0
g353 0.0
g354 0.0
g355 0.0
g356 0.0
g357 0.0
g358 0.0
g359 0.0
g360 0.0
g361 0.0
g362 0.0
g363 0.0
g364 0.0
g365 0.0
g366 0.0
g367 0.0
g368 0.0
g369 0.0
g370 0.0
g371 0.0
g372 0.0
g373 0.0
g374 0.0
g375 0.0
g376 0.0
g377 0.0
g378 0.0
g379 0.0
g380 0.0
g381 0.0
g382 0.0
g383 0.0
;
param BL:=
l2 -1000.0
l5 -1000.0
l6 -1000.0
l7 -1000.0
l8 -1000.0
l9 -1000.0
l10 -1000.0
l11 -1000.0
l12 -1000.0
l13 -1000.0
l14 -1000.0
l15 -1000.0
l16 -1000.0
l17 -1000.0
l18 -1000.0
l19 -1000.0
l20 -1000.0
l21 -1000.0
l22 -1000.0
l23 -1000.0
l24 -1000.0
l25 -1000.0
l26 -1000.0
l27 -1000.0
l28 -1000.0
l29 -1000.0
l30 -1000.0
l31 -1000.0
l32 -1000.0
l33 -1000.0
l34 -1000.0
l35 -1000.0
l36 -1000.0
l37 -1000.0
l38 -1000.0
l39 -1000.0
l40 -1000.0
l41 -1000.0
l42 -1000.0
l43 -1000.0
l44 -1000.0
l45 -1000.0
l46 -1000.0
l47 -1000.0
l48 -1000.0
l49 -1000.0
l50 -1000.0
l51 -1000.0
l52 -1000.0
l53 -1000.0
l54 -1000.0
l55 -1000.0
l56 -1000.0
l57 -1000.0
l58 -1000.0
l59 -1000.0
l60 -1000.0
l61 -1000.0
l62 -1000.0
l63 -1000.0
l64 -1000.0
l65 -1000.0
l66 -1000.0
l67 -1000.0
X -1000.0
l69 -1000.0
;
param BL:=
l2 -1000.0
l5 -1000.0
l6 -1000.0
l7 -1000.0
l8 -1000.0
l9 -1000.0
l10 -1000.0
l11 -1000.0
l12 -1000.0
l13 -1000.0
l14 -1000.0
l15 -1000.0
l16 -1000.0
l17 -1000.0
l18 -1000.0
l19 -1000.0
l20 -1000.0
l21 -1000.0
l22 -1000.0
l23 -1000.0
l24 -1000.0
l25 -1000.0
l26 -1000.0
l27 -1000.0
l28 -1000.0
l29 -1000.0
l30 -1000.0
l31 -1000.0
l32 -1000.0
l33 -1000.0
l34 -1000.0
l35 -1000.0
l36 -1000.0
l37 -1000.0
l38 -1000.0
l39 -1000.0
l40 -1000.0
l41 -1000.0
l42 -1000.0
l43 -1000.0
l44 -1000.0
l45 -1000.0
l46 -1000.0
l47 -1000.0
l48 -1000.0
l49 -1000.0
l50 -1000.0
l51 -1000.0
l52 -1000.0
l53 -1000.0
l54 -1000.0
l55 -1000.0
l56 -1000.0
l57 -1000.0
l58 -1000.0
l59 -1000.0
l60 -1000.0
l61 -1000.0
l62 -1000.0
l63 -1000.0
l64 -1000.0
l65 -1000.0
l66 -1000.0
l67 -1000.0
X -1000.0
l69 -1000.0
;
